z1,z2,z3,nondominated
5,5,5,0
5,1,9,0
3,9,1,0
9,2,8,0
7,9,8,0
7,3,8,0
9,7,10,0
10,8,8,0
2,7,1,0
7,2,1,0
10,6,4,0
9,9,2,0
10,8,8,0
2,7,5,0
1,1,4,0
7,1,10,0
9,4,4,0
5,2,10,0
4,1,7,0
3,3,1,0
10,2,1,0
6,10,9,0
4,7,8,0
10,4,8,0
7,9,3,0
2,4,7,0
2,1,4,0
7,9,1,0
2,4,4,0
10,10,8,0
3,5,5,0
10,7,6,0
4,10,9,0
9,5,4,0
7,9,6,0
2,4,5,0
1,1,1,0
1,1,1,0
1,1,1,0
1,1,1,0
1,1,1,0
1,1,1,0
